50 11399

435
135
423
294
361
372
384
399
387
493
215
114
319
154
456
11
390
468
20
378
286
187
119
307
396
96
218
123
188
364
462
495
465
288
430
240
126
393
64
38
88
383
483
221
446
310
318
277
88
142
